1 3 100 81102.44
1 3 200 79858.41
1 3 300 82337.43
2 3 100 99660.70
2 3 200 101951.03
2 3 300 104340.19
3 3 100 102314.22
3 3 200 104883.92
3 3 300 106497.37
4 3 100 96931.75
4 3 200 97897.76
4 3 300 98854.40
5 3 100 89441.00
5 3 200 92102.16
5 3 300 92579.62
